# Solution for model r5_t18_m7_6
# Finished Task: 18 / 18
# Makespan: 582.0, Total Distance: 969.0, Total Time: 0.0838
# R O S F
0 0 9 0.0 0.0
1 1 10 0.0 0.0
2 2 15 0.0 0.0
3 3 7 0.0 0.0
4 4 16 0.0 0.0
5 1 -1 522.0 544.0
6 3 -1 508.0 533.0
7 3 8 91.0 129.0
8 3 12 293.0 314.0
9 0 20 283.0 307.0
10 1 18 273.0 303.0
11 4 19 478.0 498.0
12 3 14 393.0 421.0
13 2 -1 446.0 483.0
14 3 6 470.0 500.0
15 2 13 307.0 338.0
16 4 21 231.0 254.0
17 1 5 484.0 513.0
18 1 17 416.0 446.0
19 4 -1 552.0 582.0
20 0 -1 481.0 517.0
21 4 22 338.0 368.0
22 4 11 432.0 461.0
